(set-logic ALL)
(declare-const GEN1 Int)
(declare-const BAV2 Bool)
(declare-fun x () Int)
(define-fun d () Int (div x (- 4)))
(assert (> (* (- GEN1) d) x))
(assert (= BAV2 (> (* (- GEN1) d) x)))
(check-sat)
(get-model)